language ESSENCE' 1.b.a

parameter size is 8
parameter tpr is 4
parameter weight is 2
parameter rounds is 3

parameter pp is  [
	[0,1,1,1],
	[1,0,1,1],
	[1,1,0,1],
	[1,1,1,0],
	[0,1,1,1],
	[1,0,1,1],
	[1,1,0,1],
	[1,1,1,0]
	]
